Solving original (integer) problem with strategy gdp.binary_multiplication...
--- Job model.gms Start 02/19/26 01:37:34 52.2.0 d8e408be LEX-LEG x86 64bit/Linux
--- Applying:
    /package/gams/52.2/gmsprmun.txt
--- GAMS Parameters defined
    Input /local/scratch/a/sgusev/repos/k_means/data/gams_gurobi_gdp.binary_multiplication/no_mode/2026-02-19_01-37-33/original/model.gms
    Output /local/scratch/a/sgusev/repos/k_means/data/gams_gurobi_gdp.binary_multiplication/no_mode/2026-02-19_01-37-33/original/output.lst
    ScrDir /local/scratch/a/sgusev/repos/k_means/data/gams_gurobi_gdp.binary_multiplication/no_mode/2026-02-19_01-37-33/original/225a/
    SysDir /package/gams/52.2/
    CurDir /local/scratch/a/sgusev/repos/k_means/data/gams_gurobi_gdp.binary_multiplication/no_mode/2026-02-19_01-37-33/original/
    LogOption 3
    AppendLog 1
Licensee: David Bernal / SECQUOIA Research Group         G251008+0003Ac-GEN
          Purdue University, Davidson School of Chemical EngineeringDCE4838
          225a/gamslice.dat
          5a82958a-fbca-4a23
          node:66820903 mem:995 cores:48 ipport:58211 v:2                  
          Evaluation license: Not for commercial or production use
          The time-limited license stops working on : Jun 30, 2027
System information: 48 physical cores and 995 Gb physical memory detected
GAMS 52.2.0   Copyright (C) 1987-2025 GAMS Development. All rights reserved
--- Starting compilation
--- model.gms(297) 2 Mb
--- $echo File /local/scratch/a/sgusev/repos/k_means/data/gams_gurobi_gdp.binary_multiplication/no_mode/2026-02-19_01-37-33/original/gurobi.opt
--- model.gms(520) 2 Mb
--- Starting execution: elapsed 0:00:00.006
--- model.gms(306) 3 Mb
--- Generating MINLP model GAMS_MODEL
--- model.gms(310) 5 Mb
---   74 rows  83 columns  357 non-zeroes
---   840 nl-code  280 nl-non-zeroes
---   56 discrete-columns
--- Range statistics (absolute non-zero finite values)
--- RHS       [min, max] : [ 1.000E+00, 1.000E+00] - Zero values observed as well
--- Bound     [min, max] : [ 1.000E+00, 8.400E+01] - Zero values observed as well
--- Matrix    [min, max] : [ 6.074E-02, 2.281E+00] - Zero values observed as well
--- model.gms(310) 3 Mb
--- Executing GUROBI (Solvelink=5): elapsed 0:00:00.018
Reading parameter(s) from "/local/scratch/a/sgusev/repos/k_means/data/gams_gurobi_gdp.binary_multiplication/no_mode/2026-02-19_01-37-33/original/gurobi.opt"
>>  NonConvex 2
>>  Threads 1
>>  MIPGap 1e-06
>>  MIPGapAbs 1e-10
>>  FeasibilityTol 1e-06
>>  OptimalityTol 1e-06
>>  IntFeasTol 1e-05
Finished reading from "/local/scratch/a/sgusev/repos/k_means/data/gams_gurobi_gdp.binary_multiplication/no_mode/2026-02-19_01-37-33/original/gurobi.opt"

... GRB_LICENSE_FILE = /local/scratch/a/sgusev/gurobi.lic

    Gurobi           52.2.0 d8e408be Dec 8, 2025           LEG x86 64bit/Linux    

... GAMS/Gurobi Link license.
... GMO Q Extraction (ThreePass): 0.00s

    Gurobi Optimizer version 13.0.0 build v13.0.0rc1 (linux64 - "Oracle Linux Server 9.7")
    
    CPU model: AMD EPYC 7643 48-Core Processor, instruction set [SSE2|AVX|AVX2]
    Thread count: 48 physical cores, 96 logical processors, using up to 1 threads
    
    Non-default parameters:
    TimeLimit  300
    MIPGap  1e-06
    LogToConsole  0
    NonConvex  2
    Threads  1
    
    Optimize a model with 73 rows, 138 columns and 118 nonzeros (Min)
    Model fingerprint: 0xa79a8b49
    Model has 14 linear objective coefficients
    Model has 56 general nonlinear constraints (224 nonlinear terms)
    Variable types: 82 continuous, 56 integer (0 binary)
    Coefficient statistics:
      Matrix range     [1e+00, 1e+00]
      Objective range  [1e+00, 1e+00]
      Bounds range     [1e+00, 8e+01]
      RHS range        [1e+00, 1e+00]
      NLCon coe range  [8e-03, 1e+00]
    Presolve model has 56 nlconstr
    Added 392 variables to disaggregate expressions
    Presolve removed 56 rows and 0 columns
    Presolve time: 0.00s
    Presolved: 969 rows, 587 columns, 2246 nonzeros
    Presolved model has 168 bilinear constraint(s)
    
    Solving non-convex MIQCP to global optimality
    
    Variable types: 531 continuous, 56 integer (56 binary)
    Found heuristic solution: objective 10.9056625
    
    Root relaxation: objective 0.000000e+00, 262 iterations, 0.00 seconds (0.00 work units)
    
        Nodes    |    Current Node    |     Objective Bounds      |     Work
     Expl Unexpl |  Obj  Depth IntInf | Incumbent    BestBd   Gap | It/Node Time
    
         0     0    0.00000    0   62   10.90566    0.00000   100%     -    0s
         0     0    0.00000    0   76   10.90566    0.00000   100%     -    0s
         0     0    0.00000    0  136   10.90566    0.00000   100%     -    0s
         0     0    0.00000    0  167   10.90566    0.00000   100%     -    0s
    H    0     0                       6.5060971    0.00000   100%     -    0s
         0     0    0.00000    0  169    6.50610    0.00000   100%     -    0s
         0     0    0.00000    0  182    6.50610    0.00000   100%     -    0s
         0     0    0.00000    0  174    6.50610    0.00000   100%     -    0s
         0     0    0.00000    0  176    6.50610    0.00000   100%     -    0s
         0     0    0.00000    0  181    6.50610    0.00000   100%     -    0s
         0     0    0.00000    0  181    6.50610    0.00000   100%     -    0s
         0     0    0.00000    0  181    6.50610    0.00000   100%     -    0s
         0     0    0.00000    0  177    6.50610    0.00000   100%     -    0s
    H    0     0                       6.1667385    0.00000   100%     -    0s
    H    0     0                       5.8849583    0.00000   100%     -    0s
         0     2    0.00000    0  177    5.88496    0.00000   100%     -    0s
    H   41    41                       5.6276634    0.00000   100%  10.1    0s
    H   42    42                       5.6276634    0.00000   100%   9.9    0s
    H   42    42                       5.6160641    0.00000   100%   9.9    0s
    H   47    47                       5.5475242    0.00000   100%  10.8    0s
    H   54    53                       5.2153833    0.00000   100%  10.4    0s
    H  570   412                       5.1968168    0.00000   100%  13.6    0s
    H  570   412                       5.1921749    0.00000   100%  13.6    0s
    H  570   412                       5.1910144    0.00000   100%  13.6    0s
    H  572   405                       4.8736466    0.00000   100%  13.6    0s
    H  591   414                       4.8309085    0.00000   100%  13.7    0s
    H  591   380                       4.3604981    0.00000   100%  13.7    0s
    H  623   389                       4.2717859    0.00000   100%  13.4    1s
    H 1018   570                       4.1288858    0.00000   100%  18.7    2s
    H 1018   551                       4.1124375    0.00000   100%  18.7    2s
    H 1018   532                       4.1114717    0.00000   100%  18.7    2s
    H 1069   535                       4.0025387    0.00000   100%  19.2    2s
    H 1069   519                       4.0025012    0.00000   100%  19.2    2s
    H 1069   503                       4.0024968    0.00000   100%  19.2    2s
    H 1236   557                       4.0012559    0.00000   100%  20.6    2s
    H 1236   543                       4.0009619    0.00000   100%  20.6    2s
    H 1236   530                       4.0002338    0.00000   100%  20.6    2s
    H 1236   517                       4.0000922    0.00000   100%  20.6    2s
    H 1253   514                       3.9992763    0.00000   100%  20.6    2s
    H 1462   638                       3.9594949    0.00000   100%  20.8    2s
    H 1462   638                       3.9562151    0.00000   100%  20.8    2s
    H 1462   638                       3.9546654    0.00000   100%  20.8    2s
    H 1462   638                       3.9543082    0.00000   100%  20.8    2s
    H 1676   783                       3.9542697    0.00000   100%  20.8    2s
    H 1676   783                       3.9542569    0.00000   100%  20.8    2s
    H 1738   828                       3.9542474    0.00000   100%  20.8    2s
    H 1771   835                       3.9495402    0.00000   100%  20.9    2s
    H 1771   835                       3.9493784    0.00000   100%  20.9    2s
    H 1771   835                       3.9473399    0.00000   100%  20.9    2s
    H 1771   835                       3.9473334    0.00000   100%  20.9    2s
    H 2772  1245                       3.7899859    0.00000   100%  21.5    4s
    H 2775  1244                       3.7878168    0.00000   100%  21.5    4s
    H 2775  1244                       3.7856582    0.00000   100%  21.5    4s
    H 2775  1244                       3.7843111    0.00000   100%  21.5    4s
    H 2775  1244                       3.7841769    0.00000   100%  21.5    4s
    H 2775  1244                       3.7839836    0.00000   100%  21.5    4s
    H 2796  1236                       3.7076116    0.00000   100%  21.6    4s
    H 2811  1235                       3.7075597    0.00000   100%  21.7    4s
    H 2811  1235                       3.7075558    0.00000   100%  21.7    4s
    H 2811  1235                       3.7075525    0.00000   100%  21.7    4s
    H 2811  1232                       3.6963254    0.00000   100%  21.7    4s
    H 2811  1232                       3.6929230    0.00000   100%  21.7    4s
    H 2811  1232                       3.6923680    0.00000   100%  21.7    4s
    H 2811  1232                       3.6920815    0.00000   100%  21.7    4s
    H 2824  1243                       3.6920473    0.00000   100%  21.7    4s
    H 2895  1298                       3.6919160    0.00000   100%  21.9    4s
    H 2895  1298                       3.6918271    0.00000   100%  21.9    4s
    H 2912  1258                       3.4734630    0.00000   100%  21.8    4s
    H 2913  1259                       3.4734630    0.00000   100%  21.8    4s
    H 2916  1260                       3.4734630    0.00000   100%  21.8    4s
      3145  1390    3.19673   50  128    3.47346    0.00000   100%  21.7    5s
      7180  3005    2.62857   34  179    3.47346    0.00000   100%  24.1   10s
     12756  5414    3.06755   57  134    3.47346    0.01267   100%  23.6   15s
     18077  7299    2.60966   35  160    3.47346    0.15401  95.6%  23.3   20s
     23859  9264    3.27751   32  168    3.47346    0.32275  90.7%  22.9   25s
     29488 10938    2.75152   26  135    3.47346    0.47482  86.3%  22.6   30s
     35267 12700     cutoff   42         3.47346    0.58311  83.2%  22.5   35s
    H37625 13302                       3.4323435    0.64801  81.1%  22.5   37s
     40321 14229     cutoff   39         3.43234    0.69728  79.7%  22.3   40s
     45899 15553    1.61495   30  156    3.43234    0.79146  76.9%  22.3   45s
    H46331 15646                       3.4323435    0.79662  76.8%  22.3   45s
     50422 16546    0.87014   24  156    3.43234    0.87014  74.6%  22.3   50s
     55697 17593 infeasible   32         3.43234    0.95212  72.3%  22.3   55s
     60893 18624 infeasible   27         3.43234    1.02771  70.1%  22.4   60s
     65790 19507    1.87370   35  179    3.43234    1.09722  68.0%  22.4   65s
     71062 20379     cutoff   25         3.43234    1.16985  65.9%  22.3   70s
     76381 21415    1.74858   30  161    3.43234    1.22082  64.4%  22.2   75s
     81528 22117    2.21072   35  156    3.43234    1.28418  62.6%  22.2   80s
     86473 22806    3.22169   26  178    3.43234    1.34358  60.9%  22.1   85s
     91613 23734     cutoff   26         3.43234    1.38445  59.7%  22.0   90s
     96278 24336    2.16993   36  147    3.43234    1.43262  58.3%  22.0   95s
     101380 25037     cutoff   34         3.43234    1.47302  57.1%  22.0  100s
     106351 25536    3.11598   31  149    3.43234    1.52300  55.6%  22.0  105s
     111383 26230     cutoff   27         3.43234    1.56020  54.5%  22.0  110s
     116336 26777    2.87185   29  150    3.43234    1.60182  53.3%  22.0  115s
     120468 27095    3.10446   33  163    3.43234    1.63108  52.5%  22.1  120s
     125282 27447    1.74125   32  158    3.43234    1.67143  51.3%  22.1  125s
     129920 27796    2.91651   43  147    3.43234    1.71469  50.0%  22.1  130s
     134698 28139    3.08385   32  164    3.43234    1.75630  48.8%  22.0  135s
     139420 28314    3.25369   40  168    3.43234    1.79661  47.7%  22.0  140s
     144260 28605    3.07921   30  166    3.43234    1.82832  46.7%  22.0  145s
     149080 28842    3.08363   32  170    3.43234    1.86399  45.7%  22.0  150s
     153909 29121     cutoff   26         3.43234    1.89972  44.7%  22.0  155s
     158614 29195    3.18233   37  137    3.43234    1.93583  43.6%  21.9  160s
     162941 29284 infeasible   42         3.43234    1.96989  42.6%  21.9  165s
     167653 29334 infeasible   41         3.43234    2.00421  41.6%  21.9  170s
     172600 29514    2.63195   48  143    3.43234    2.03135  40.8%  21.9  175s
     177466 29737    3.08346   35  161    3.43234    2.05581  40.1%  21.8  180s
     181631 29929    2.84726   34  167    3.43234    2.07859  39.4%  21.8  185s
     186447 30007    3.12740   32  182    3.43234    2.10629  38.6%  21.8  190s
     191127 29935     cutoff   29         3.43234    2.13738  37.7%  21.8  195s
     195398 29878    2.46511   33  176    3.43234    2.16205  37.0%  21.7  200s
     199940 29642     cutoff   32         3.43234    2.19169  36.1%  21.7  205s
     204592 29638     cutoff   35         3.43234    2.22002  35.3%  21.6  210s
     208563 29577    3.17553   36  153    3.43234    2.24312  34.6%  21.6  215s
     212924 29301    3.02249   38  168    3.43234    2.27080  33.8%  21.6  220s
     217525 28984    3.32869   39  167    3.43234    2.29977  33.0%  21.6  225s
     221932 28658    2.32448   31  181    3.43234    2.32448  32.3%  21.5  230s
     226544 28287    2.45298   26  170    3.43234    2.34937  31.6%  21.5  235s
     231071 27861    2.93448   26  164    3.43234    2.37603  30.8%  21.4  240s
     235460 27402    3.09752   39  162    3.43234    2.40350  30.0%  21.4  245s
     239907 27012    2.43059   31  169    3.43234    2.43059  29.2%  21.4  250s
     244311 26397     cutoff   35         3.43234    2.45946  28.3%  21.3  255s
     248179 26069    3.16640   43  145    3.43234    2.48175  27.7%  21.3  260s
     252581 25546     cutoff   38         3.43234    2.50788  26.9%  21.2  265s
     256720 25070     cutoff   33         3.43234    2.53302  26.2%  21.2  270s
     261152 24801    3.21652   36  166    3.43234    2.55546  25.5%  21.1  275s
     265620 24266    2.77564   50  118    3.43234    2.58335  24.7%  21.1  280s
     270009 23868     cutoff   37         3.43234    2.60992  24.0%  21.0  285s
    H274211 23314                       3.4323435    2.63641  23.2%  21.0  289s
     274216 23313    2.92123   36  164    3.43234    2.63641  23.2%  21.0  290s
     278346 22804    3.42317   64  139    3.43234    2.66034  22.5%  20.9  295s
    H282390 22289                       3.4323435    2.68276  21.8%  20.8  299s
    
    Cutting planes:
      Gomory: 4
      Implied bound: 7
      MIR: 6
      Flow cover: 30
      Inf proof: 14
      RLT: 3
    
    Explored 282860 nodes (5895928 simplex iterations) in 300.00 seconds (203.15 work units)
    Thread count was 1 (of 96 available processors)
    
    Solution count 10: 3.43234 3.47346 3.69183 ... 3.70755
    
    Time limit reached
    Best objective 3.432343470001e+00, best bound 2.685950248090e+00, gap 21.7459%
    
    User-callback calls 282928, time in user-callback 0.02 sec

--- Reading solution for model GAMS_MODEL
***
*** Solver did not provide marginals for model GAMS_MODEL
***
--- Executing after solve: elapsed 0:05:00.076
--- model.gms(313) 3 Mb
--- model.gms(520) 5 Mb
--- Putfile results /local/scratch/a/sgusev/repos/k_means/data/gams_gurobi_gdp.binary_multiplication/no_mode/2026-02-19_01-37-33/original/results.dat
--- Putfile statresults /local/scratch/a/sgusev/repos/k_means/data/gams_gurobi_gdp.binary_multiplication/no_mode/2026-02-19_01-37-33/original/resultsstat.dat
*** Status: Normal completion
--- Job model.gms Stop 02/19/26 01:42:34 elapsed 0:05:00.076
Original problem solved. Time taken: 300.5567617416382 seconds
Original objective value: 3.432343470000627
